n = 50;
C = 254;
w = [401,194,36,376,115,471,68,470,157,290,165,438,51,201,456,245,250,393,414,88,250,118,479,86,313,227,287,354,385,346,224,426,154,407,368,39,58,366,341,200,265,206,18,383,157,28,7,235,277,424];
p = [401,194,36,376,115,471,68,470,157,290,165,438,51,201,456,245,250,393,414,88,250,118,479,86,313,227,287,354,385,346,224,426,154,407,368,39,58,366,341,200,265,206,18,383,157,28,7,235,277,424];
